Route #1: 57 55 54 53 56 58 60 59
Route #2: 32 33 31 35 37 38 39 36 34
Route #3: 91 89 88 85 84 82 83 86 87 90
Route #4: 81 78 76 71 70 73 77 79 80 61 72 64 68 66
Route #5: 17 18 12 14 16 19 15 13 10
Route #6: 47 49 52 50 51 48 45 44 46 42 40 41 43
Route #7: 98 96 95 94 92 93 97 100 99 3
Route #8: 75 1 2 4 6 9 11 8 7 5
Route #9: 69 62 74 63 65 67
Route #10: 20 21 22 24 25 27 29 30 28 26 23
Cost 830.6026344824787